certificates/rado_a14_c30_N27.drat
-25 -27 0
d -25 -2 -27 0
-2 -3 -26 0
-3 -26 0
d -14 -3 -26 0
3 -27 0
1 -27 0
-27 0
4 0
-2 0
25 0
3 0
-15 0
-26 0
-13 0
-16 0
17 0
0
